Version identifier: 22.1.0.0 | 2022-03-09 | 1a383f8ce
CPXPARAM_Read_DataCheck                          1
Tried aggregator 3 times.
MIP Presolve eliminated 642 rows and 247 columns.
MIP Presolve modified 24 coefficients.
Aggregator did 426 substitutions.
Reduced MIP has 213 rows, 449 columns, and 1113 nonzeros.
Reduced MIP has 443 binaries, 6 generals, 0 SOSs, and 0 indicators.
Presolve time = 0.00 sec. (3.12 ticks)
Probing fixed 10 vars, tightened 0 bounds.
Probing time = 0.00 sec. (0.55 ticks)
Tried aggregator 2 times.
Detecting symmetries...
MIP Presolve eliminated 10 rows and 13 columns.
Aggregator did 4 substitutions.
Reduced MIP has 199 rows, 432 columns, and 1060 nonzeros.
Reduced MIP has 426 binaries, 6 generals, 0 SOSs, and 0 indicators.
Presolve time = 0.00 sec. (1.16 ticks)
Probing time = 0.00 sec. (0.45 ticks)
Clique table members: 960.
MIP emphasis: balance optimality and feasibility.
MIP search method: dynamic search.
Parallel mode: deterministic, using up to 8 threads.
Root relaxation solution time = 0.01 sec. (1.30 ticks)

        Nodes                                         Cuts/
   Node  Left     Objective  IInf  Best Integer    Best Bound    ItCnt     Gap

      0     0        6.4722   150                      6.4722      172         
      0     0        9.1250    95                    Cuts: 53      295         
      0     0       10.0000   110                    Cuts: 36      369         
      0     0       10.0000   115                    Cuts: 19      403         
      0     0       10.0000    88                     Cuts: 2      415         
      0     0       10.0000    99                ZeroHalf: 12      449         
*     0+    0                           12.0000       10.0000            16.67%
*     0+    0                           11.0000       10.0000             9.09%
      0     0        cutoff             11.0000       11.0000      449    0.00%
Elapsed time = 0.11 sec. (58.06 ticks, tree = 0.01 MB, solutions = 2)

Clique cuts applied:  4
Implied bound cuts applied:  1
Zero-half cuts applied:  11
Lift and project cuts applied:  1
Gomory fractional cuts applied:  3

Root node processing (before b&c):
  Real time             =    0.11 sec. (58.10 ticks)
Parallel b&c, 8 threads:
  Real time             =    0.00 sec. (0.00 ticks)
  Sync time (average)   =    0.00 sec.
  Wait time (average)   =    0.00 sec.
                          ------------
Total (root+branch&cut) =    0.11 sec. (58.10 ticks)
